c 
p cnf 107 182
-19 11 4 0
2 -19 21 0
-21 -18 -7 0
11 9 8 0
10 -17 22 0
10 -17 -22 0
5 -7 23 0
5 -7 -23 0
12 -2 24 0
-24 -16 -19 0
-10 17 25 0
-25 -16 20 0
-17 18 26 0
-26 15 -16 0
-2 3 17 0
9 -19 27 0
-27 3 -12 0
14 4 28 0
-28 13 12 0
-16 6 -11 0
1 29 30 0
1 29 -30 0
1 -29 30 0
1 -29 -30 0
3 31 32 0
3 31 -32 0
3 -31 32 0
3 -31 -32 0
3 14 5 0
-9 -19 33 0
-33 -10 34 0
-34 3 -16 0
17 12 35 0
17 12 -35 0
-10 -15 12 0
-6 -15 36 0
-36 -20 37 0
-37 -17 -5 0
19 -6 38 0
19 -6 -38 0
3 1 39 0
-39 11 -5 0
-15 8 40 0
-40 17 -5 0
-4 2 12 0
-13 -17 41 0
-13 -17 -41 0
2 42 43 0
2 42 -43 0
2 -42 43 0
2 -42 -43 0
6 8 44 0
-44 -12 -18 0
-8 -15 45 0
-45 6 46 0
-46 -2 -19 0
19 47 48 0
19 47 -48 0
19 -47 48 0
19 -47 -48 0
-18 -2 49 0
-18 -2 -49 0
-14 50 51 0
-14 50 -51 0
-14 -50 51 0
-14 -50 -51 0
20 10 52 0
-52 -7 16 0
-4 1 53 0
-4 1 -53 0
3 54 55 0
3 54 -55 0
3 -54 55 0
3 -54 -55 0
20 -8 56 0
-56 -7 14 0
5 -3 57 0
5 -3 -57 0
7 19 58 0
7 19 -58 0
-11 14 59 0
-59 -18 60 0
-60 -16 -1 0
7 61 62 0
7 61 -62 0
7 -61 62 0
7 -61 -62 0
-9 17 16 0
-14 -11 -9 0
-3 63 64 0
-3 63 -64 0
-3 -63 64 0
-3 -63 -64 0
1 -18 65 0
-65 5 66 0
-66 12 -19 0
-12 -6 18 0
1 -2 67 0
-67 17 11 0
-1 12 68 0
-68 4 69 0
-69 -3 -5 0
20 -9 70 0
-70 15 -3 0
19 9 71 0
19 9 -71 0
-16 10 14 0
-6 13 72 0
-6 13 -72 0
7 19 73 0
7 19 -73 0
-6 74 75 0
-6 74 -75 0
-6 -74 75 0
-6 -74 -75 0
-10 16 76 0
-76 19 -11 0
-3 -11 77 0
-3 -11 -77 0
-8 20 78 0
-78 1 -16 0
-5 9 79 0
-79 -3 -15 0
3 80 81 0
3 80 -81 0
3 -80 81 0
3 -80 -81 0
-12 -2 82 0
-82 5 19 0
-7 -20 83 0
-7 -20 -83 0
-2 -10 84 0
-84 -6 85 0
-85 16 12 0
-20 6 86 0
-86 17 -14 0
-9 87 88 0
-9 87 -88 0
-9 -87 88 0
-9 -87 -88 0
17 89 90 0
17 89 -90 0
17 -89 90 0
17 -89 -90 0
5 91 92 0
5 91 -92 0
5 -91 92 0
5 -91 -92 0
8 -12 93 0
-93 -14 -11 0
20 -17 94 0
-94 3 -9 0
-6 -17 9 0
-15 -13 95 0
-95 -16 9 0
3 4 96 0
-96 5 97 0
-97 -20 17 0
-7 12 98 0
-7 12 -98 0
20 -10 -13 0
-14 19 99 0
-99 6 100 0
-100 5 15 0
19 -12 -5 0
-9 101 102 0
-9 101 -102 0
-9 -101 102 0
-9 -101 -102 0
-2 7 14 0
6 19 103 0
-103 11 -10 0
-13 18 104 0
-104 5 3 0
-3 105 106 0
-3 105 -106 0
-3 -105 106 0
-3 -105 -106 0
-18 5 4 0
-10 -2 12 0
12 11 107 0
-107 16 10 0
